units metal
boundary p p p
atom_style atomic
neighbor 1.0 bin
neigh_modify delay 1
pair_style mace no_domain_decomposition

atom_modify   map yes
newton        on

read_data ../2100ps/out.data

pair_coeff * * ../../../MACE_0.model-lammps.pt  Li F

group Li type 1
group F type 2

thermo_style custom step atoms temp press pe ke etotal density

fix nvt1 all nvt temp 350 350 0.1
timestep 0.001
thermo 100
dump myDump all custom 100 dump.lammpstrj id type xu yu zu

run 300000
write_data out.data
